2023/05/23
Julia is now 1.9.0
previous version was 1.7.2
2023/11/29
gurobi is now 11.0.0
previous version was 10.0.2
solving instance transportation 2 4 exp
presolving:
(round 1, fast)       4 del vars, 4 del conss, 0 add conss, 8 chg bounds, 0 chg sides, 0 chg coeffs, 0 upgd conss, 0 impls, 0 clqs
(round 2, exhaustive) 4 del vars, 5 del conss, 0 add conss, 8 chg bounds, 0 chg sides, 0 chg coeffs, 0 upgd conss, 0 impls, 0 clqs
(round 3, fast)       5 del vars, 6 del conss, 0 add conss, 8 chg bounds, 0 chg sides, 0 chg coeffs, 0 upgd conss, 0 impls, 0 clqs
(round 4, exhaustive) 5 del vars, 6 del conss, 0 add conss, 8 chg bounds, 0 chg sides, 0 chg coeffs, 2 upgd conss, 0 impls, 0 clqs
   (0.0s) probing cycle finished: starting next cycle
   (0.0s) symmetry computation started: requiring (bin +, int -, cont -), (fixed: bin -, int +, cont +)
   (0.0s) no symmetry present
presolving (5 rounds: 5 fast, 3 medium, 3 exhaustive):
 5 deleted vars, 6 deleted constraints, 0 added constraints, 8 tightened bounds, 0 added holes, 0 changed sides, 0 changed coefficients
 8 implications, 1 cliques
presolved problem has 7 variables (2 bin, 0 int, 0 impl, 5 cont) and 6 constraints
      2 constraints of type <varbound>
      4 constraints of type <nonlinear>
Presolving Time: 0.00

 time | node  | left  |LP iter|LP it/n|mem/heur|mdpt |vars |cons |rows |cuts |sepa|confs|strbr|  dualbound   | primalbound  |  gap   | compl. 
t 0.0s|     1 |     0 |     0 |     - | trivial|   0 |   7 |   6 |   0 |   0 |  0 |   0 |   0 | 1.258175e+02 | 4.000000e+10 |  Large | unknown
p 0.0s|     1 |     0 |     4 |     - |  clique|   0 |  19 |   6 |  30 |   0 |  0 |   0 |   0 | 1.258175e+02 | 2.806612e+02 | 123.07%| unknown
  0.0s|     1 |     0 |    53 |     - |   888k |   0 |  19 |   6 |  30 |   0 |  0 |   0 |   0 | 1.638230e+02 | 2.806612e+02 |  71.32%| unknown
  0.0s|     1 |     0 |    60 |     - |   957k |   0 |  19 |   6 |  31 |   2 |  1 |   0 |   0 | 1.793172e+02 | 2.806612e+02 |  56.52%| unknown
  0.0s|     1 |     0 |    62 |     - |   962k |   0 |  19 |   6 |  32 |   3 |  2 |   0 |   0 | 1.821893e+02 | 2.806612e+02 |  54.05%| unknown
  0.0s|     1 |     0 |    73 |     - |   967k |   0 |  19 |   6 |  33 |   4 |  3 |   0 |   0 | 1.920448e+02 | 2.806612e+02 |  46.14%| unknown
  0.0s|     1 |     0 |    74 |     - |   972k |   0 |  19 |   6 |  34 |   5 |  4 |   0 |   0 | 1.920576e+02 | 2.806612e+02 |  46.13%| unknown
(run 1, node 1) restarting after 1 global fixings of integer variables

(restart) converted 2 cuts from the global cut pool into linear constraints

presolving:
(round 1, fast)       13 del vars, 0 del conss, 0 add conss, 1 chg bounds, 0 chg sides, 0 chg coeffs, 0 upgd conss, 8 impls, 0 clqs
(round 2, fast)       13 del vars, 0 del conss, 0 add conss, 4 chg bounds, 0 chg sides, 0 chg coeffs, 0 upgd conss, 8 impls, 0 clqs
(round 3, exhaustive) 13 del vars, 0 del conss, 0 add conss, 4 chg bounds, 0 chg sides, 0 chg coeffs, 1 upgd conss, 8 impls, 0 clqs
presolving (4 rounds: 4 fast, 2 medium, 2 exhaustive):
 13 deleted vars, 0 deleted constraints, 0 added constraints, 4 tightened bounds, 0 added holes, 0 changed sides, 0 changed coefficients
 8 implications, 0 cliques
presolved problem has 6 variables (1 bin, 0 int, 0 impl, 5 cont) and 7 constraints
      2 constraints of type <varbound>
      1 constraints of type <linear>
      4 constraints of type <nonlinear>
Presolving Time: 0.00
transformed 1/2 original solutions to the transformed problem space

 time | node  | left  |LP iter|LP it/n|mem/heur|mdpt |vars |cons |rows |cuts |sepa|confs|strbr|  dualbound   | primalbound  |  gap   | compl. 
  0.1s|     1 |     0 |   158 |     - |   998k |   0 |  18 |   7 |  31 |   0 |  0 |   0 |   0 | 1.920576e+02 | 2.806612e+02 |  46.13%| unknown
  0.1s|     1 |     0 |   159 |     - |   998k |   0 |  18 |   7 |  32 |   1 |  1 |   0 |   0 | 1.920576e+02 | 2.806612e+02 |  46.13%| unknown
  0.2s|     1 |     2 |   198 |     - |   998k |   0 |  18 |   7 |  32 |   1 |  3 |   0 |   0 | 1.920576e+02 | 2.806612e+02 |  46.13%| unknown

SCIP Status        : problem is solved [optimal solution found]
Solving Time (sec) : 0.16
Solving Nodes      : 5 (total of 6 nodes in 2 runs)
Primal Bound       : +2.80661194223883e+02 (2 solutions)
Dual Bound         : +2.80661194223883e+02
Gap                : 0.00 %
primal_bound = 280.6611942238833, dual_bound = 280.6611942238833, gap = 0.0, time = 3.08
